
Gurobi 12.0.2 (win64) logging started Mon Nov 17 16:59:53 2025

Set parameter LogFile to value "C:\Users\utente\Desktop\TESI\Job_Shop_Scheduling_Benchmark_Environments_and_Instances\simulations\logs\experiment_logs\gurobi_exp1.log"
Set parameter OutputFlag to value 1
Set parameter TimeLimit to value 2000
Gurobi Optimizer version 12.0.2 build v12.0.2rc0 (win64 - Windows 10.0 (19045.2))

CPU model: Intel(R) Core(TM) i7-7500U CPU @ 2.70GHz, instruction set [SSE2|AVX|AVX2]
Thread count: 2 physical cores, 4 logical processors, using up to 4 threads

Non-default parameters:
TimeLimit  2000
NonConvex  2

Optimize a model with 1516 rows, 285 columns and 7148 nonzeros
Model fingerprint: 0xa1cd12e2
Model has 4 quadratic constraints
Variable types: 0 continuous, 285 integer (252 binary)
Coefficient statistics:
  Matrix range     [1e+00, 3e+02]
  QMatrix range    [1e+00, 1e+00]
  QLMatrix range   [1e+00, 1e+00]
  Objective range  [1e+00, 1e+00]
  Bounds range     [1e+00, 1e+00]
  RHS range        [1e+00, 8e+02]

---------------------------------------------------------------------------
Multi-objectives: starting optimization with 2 objectives... 
---------------------------------------------------------------------------

Multi-objectives: applying initial presolve...
---------------------------------------------------------------------------

Presolve removed 104 rows and 18 columns
Presolve time: 0.03s
Presolved: 1412 rows, 267 columns, 6320 nonzeros

Multi-objectives: optimize objective 1 () ...
---------------------------------------------------------------------------

Presolve removed 68 rows and 67 columns
Presolve time: 0.01s
Presolved: 1344 rows, 200 columns, 6176 nonzeros
Presolved model has 4 quadratic constraint(s)
Variable types: 0 continuous, 200 integer (180 binary)

Root relaxation: objective 0.000000e+00, 40 iterations, 0.01 seconds (0.00 work units)

    Nodes    |    Current Node    |     Objective Bounds      |     Work
 Expl Unexpl |  Obj  Depth IntInf | Incumbent    BestBd   Gap | It/Node Time

     0     0    0.00000    0    -          -    0.00000      -     -    0s
     0     0    0.00000    0   17          -    0.00000      -     -    0s
     0     0    0.00000    0   17          -    0.00000      -     -    0s
     0     0    0.00000    0   17          -    0.00000      -     -    0s
     0     0    0.00000    0   16          -    0.00000      -     -    0s
H    0     0                      66.0000000    0.00000   100%     -    0s
H    0     0                      54.0000000    0.00000   100%     -    0s
H    0     0                      53.0000000    0.00000   100%     -    0s
     0     0    0.00000    0   19   53.00000    0.00000   100%     -    0s
     0     0    1.00000    0    2   53.00000    1.00000  98.1%     -    0s
H    0     0                      37.0000000    1.00000  97.3%     -    0s
     0     0    1.00000    0    1   37.00000    1.00000  97.3%     -    0s
H    0     0                      21.0000000    1.00000  95.2%     -    0s
H    0     0                      20.0000000    1.00000  95.0%     -    0s
H    0     0                       5.0000000    1.00000  80.0%     -    0s
     0     0    1.00000    0    7    5.00000    1.00000  80.0%     -    0s
     0     0    1.00000    0    5    5.00000    1.00000  80.0%     -    0s
     0     0    1.00000    0   11    5.00000    1.00000  80.0%     -    0s
H    0     0                       3.0000000    1.00000  66.7%     -    0s
     0     0    1.15000    0   28    3.00000    1.15000  61.7%     -    0s
     0     0    2.00000    0   10    3.00000    2.00000  33.3%     -    0s
     0     0    2.00000    0    4    3.00000    2.00000  33.3%     -    0s
H    0     0                       2.0000000    2.00000  0.00%     -    0s

Cutting planes:
  Implied bound: 1
  MIR: 8
  RLT: 2

Explored 1 nodes (444 simplex iterations) in 0.29 seconds (0.12 work units)
Thread count was 4 (of 4 available processors)

Solution count 10: 2 3 5 ... 66

Optimal solution found (tolerance 1.00e-04)
Best objective 2.000000000000e+00, best bound 2.000000000000e+00, gap 0.0000%
---------------------------------------------------------------------------

Multi-objectives: optimize objective 2 () ...
---------------------------------------------------------------------------


Loaded user MIP start with objective 12

Presolve removed 1413 rows and 267 columns
Presolve time: 0.02s
Presolve: All rows and columns removed

Explored 0 nodes (0 simplex iterations) in 0.32 seconds (0.13 work units)
Thread count was 1 (of 4 available processors)

Solution count 1: 12 

Optimal solution found (tolerance 1.00e-04)
Best objective 1.200000000000e+01, best bound 1.200000000000e+01, gap 0.0000%

---------------------------------------------------------------------------
Multi-objectives: solved in 0.32 seconds (0.13 work units), solution count 10


User-callback calls 1964, time in user-callback 0.01 sec

Gurobi 12.0.2 (win64) logging started Mon Nov 17 17:01:00 2025

Set parameter LogFile to value "C:\Users\utente\Desktop\TESI\Job_Shop_Scheduling_Benchmark_Environments_and_Instances\simulations\logs\experiment_logs\gurobi_exp1.log"
Set parameter OutputFlag to value 1
Set parameter TimeLimit to value 2000
Gurobi Optimizer version 12.0.2 build v12.0.2rc0 (win64 - Windows 10.0 (19045.2))

CPU model: Intel(R) Core(TM) i7-7500U CPU @ 2.70GHz, instruction set [SSE2|AVX|AVX2]
Thread count: 2 physical cores, 4 logical processors, using up to 4 threads

Non-default parameters:
TimeLimit  2000
NonConvex  2

Optimize a model with 1516 rows, 285 columns and 7148 nonzeros
Model fingerprint: 0xa1cd12e2
Model has 4 quadratic constraints
Variable types: 0 continuous, 285 integer (252 binary)
Coefficient statistics:
  Matrix range     [1e+00, 3e+02]
  QMatrix range    [1e+00, 1e+00]
  QLMatrix range   [1e+00, 1e+00]
  Objective range  [1e+00, 1e+00]
  Bounds range     [1e+00, 1e+00]
  RHS range        [1e+00, 8e+02]

---------------------------------------------------------------------------
Multi-objectives: starting optimization with 2 objectives... 
---------------------------------------------------------------------------

Multi-objectives: applying initial presolve...
---------------------------------------------------------------------------

Presolve removed 104 rows and 18 columns
Presolve time: 0.02s
Presolved: 1412 rows, 267 columns, 6320 nonzeros

Multi-objectives: optimize objective 1 () ...
---------------------------------------------------------------------------

Presolve removed 68 rows and 67 columns
Presolve time: 0.01s
Presolved: 1344 rows, 200 columns, 6176 nonzeros
Presolved model has 4 quadratic constraint(s)
Variable types: 0 continuous, 200 integer (180 binary)

Root relaxation: objective 0.000000e+00, 40 iterations, 0.00 seconds (0.00 work units)

    Nodes    |    Current Node    |     Objective Bounds      |     Work
 Expl Unexpl |  Obj  Depth IntInf | Incumbent    BestBd   Gap | It/Node Time

     0     0    0.00000    0    -          -    0.00000      -     -    0s
     0     0    0.00000    0   17          -    0.00000      -     -    0s
     0     0    0.00000    0   17          -    0.00000      -     -    0s
     0     0    0.00000    0   17          -    0.00000      -     -    0s
     0     0    0.00000    0   16          -    0.00000      -     -    0s
H    0     0                      66.0000000    0.00000   100%     -    0s
H    0     0                      54.0000000    0.00000   100%     -    0s
H    0     0                      53.0000000    0.00000   100%     -    0s
     0     0    0.00000    0   19   53.00000    0.00000   100%     -    0s
     0     0    1.00000    0    2   53.00000    1.00000  98.1%     -    0s
H    0     0                      37.0000000    1.00000  97.3%     -    0s
     0     0    1.00000    0    1   37.00000    1.00000  97.3%     -    0s
H    0     0                      21.0000000    1.00000  95.2%     -    0s
H    0     0                      20.0000000    1.00000  95.0%     -    0s
H    0     0                       5.0000000    1.00000  80.0%     -    0s
     0     0    1.00000    0    7    5.00000    1.00000  80.0%     -    0s
     0     0    1.00000    0    5    5.00000    1.00000  80.0%     -    0s
     0     0    1.00000    0   11    5.00000    1.00000  80.0%     -    0s
H    0     0                       3.0000000    1.00000  66.7%     -    0s
     0     0    1.15000    0   28    3.00000    1.15000  61.7%     -    0s
     0     0    2.00000    0   10    3.00000    2.00000  33.3%     -    0s
     0     0    2.00000    0    4    3.00000    2.00000  33.3%     -    0s
H    0     0                       2.0000000    2.00000  0.00%     -    0s

Cutting planes:
  Implied bound: 1
  MIR: 8
  RLT: 2

Explored 1 nodes (444 simplex iterations) in 0.33 seconds (0.12 work units)
Thread count was 4 (of 4 available processors)

Solution count 10: 2 3 5 ... 66

Optimal solution found (tolerance 1.00e-04)
Best objective 2.000000000000e+00, best bound 2.000000000000e+00, gap 0.0000%
---------------------------------------------------------------------------

Multi-objectives: optimize objective 2 () ...
---------------------------------------------------------------------------


Loaded user MIP start with objective 12

Presolve removed 1413 rows and 267 columns
Presolve time: 0.01s
Presolve: All rows and columns removed

Explored 0 nodes (0 simplex iterations) in 0.35 seconds (0.13 work units)
Thread count was 1 (of 4 available processors)

Solution count 1: 12 

Optimal solution found (tolerance 1.00e-04)
Best objective 1.200000000000e+01, best bound 1.200000000000e+01, gap 0.0000%

---------------------------------------------------------------------------
Multi-objectives: solved in 0.35 seconds (0.13 work units), solution count 10


User-callback calls 1966, time in user-callback 0.00 sec
